(set-option :print-success false)
(set-logic QF_UF)
(declare-sort x23 0)
(declare-sort x126 0)
(declare-fun x146 (x126 x126) x126)
(declare-fun x19 () x126)
(declare-fun x96 () x126)
(declare-fun x98 () x126)
(declare-fun x124 () x126)
(declare-fun x136 () x126)
(declare-fun x81 (x126 x126) x126)
(assert (or (= (x146 x96 x96) x96) (or (= (x146 x136 x136) x136) (or (= (x146 x124 x124) x124) (or (= x98 (x146 x98 x98)) (= (x146 x19 x19) x19))))))
(assert (and (and (and (and (or (or (= (x146 (x146 x136 x19) x19) x136) (or (= (x146 (x146 x124 x19) x19) x124) (or (= x19 (x146 (x146 x19 x19) x19)) (= (x146 (x146 x98 x19) x19) x98)))) (= x96 (x146 (x146 x96 x19) x19))) (or (or (or (= x124 (x146 (x146 x124 x98) x98)) (or (= (x146 (x146 x98 x98) x98) x98) (= x19 (x146 (x146 x19 x98) x98)))) (= (x146 (x146 x136 x98) x98) x136)) (= (x146 (x146 x96 x98) x98) x96))) (or (or (= x136 (x146 (x146 x136 x124) x124)) (or (= (x146 (x146 x124 x124) x124) x124) (or (= x98 (x146 (x146 x98 x124) x124)) (= x19 (x146 (x146 x19 x124) x124))))) (= (x146 (x146 x96 x124) x124) x96))) (or (= (x146 (x146 x96 x136) x136) x96) (or (or (= (x146 (x146 x124 x136) x136) x124) (or (= (x146 (x146 x98 x136) x136) x98) (= x19 (x146 (x146 x19 x136) x136)))) (= x136 (x146 (x146 x136 x136) x136))))) (or (or (or (= (x146 (x146 x124 x96) x96) x124) (or (= x98 (x146 (x146 x98 x96) x96)) (= x19 (x146 (x146 x19 x96) x96)))) (= x136 (x146 (x146 x136 x96) x96))) (= (x146 (x146 x96 x96) x96) x96))))
(assert (let ((x4 (x146 x124 x96)) (x135 (x146 x19 x98)) (x2 (x146 x136 x96)) (x133 (x146 x96 x136)) (x9 (x146 x124 x136)) (x41 (x146 x98 x124)) (x89 (= (x146 x124 x124) x124)) (x46 (x146 x98 x19)) (x118 (x146 x96 x19)) (x44 (x146 x98 x96)) (x65 (x146 x19 x124)) (x10 (x146 x98 x136)) (x36 (x146 x19 x136)) (x132 (x146 x136 x98)) (x141 (= (x146 x136 x136) x136)) (x37 (= x19 (x146 x19 x19))) (x97 (x146 x136 x124)) (x111 (x146 x19 x96)) (x33 (x146 x96 x98)) (x16 (x146 x124 x19)) (x17 (x146 x96 x124)) (x127 (= (x146 x98 x98) x98)) (x131 (x146 x124 x98)) (x112 (= (x146 x96 x96) x96)) (x130 (x146 x136 x19))) (let ((x47 (or (= x96 x118) (or (= x136 x130) (or (= x16 x124) (or x37 (= x98 x46)))))) (x43 (or (or (= x2 x136) (or (= x4 x124) (or (= x98 x44) (= x19 x111)))) x112)) (x143 (or (= x96 x17) (or (= x136 x97) (or (or (= x98 x41) (= x19 x65)) x89)))) (x55 (or (or (or (or (= x98 x10) (= x19 x36)) (= x9 x124)) x141) (= x133 x96))) (x105 (or (= x96 x33) (or (or (= x124 x131) (or x127 (= x135 x19))) (= x136 x132))))) (and (and (and (and (and (or (not (= x19 x118)) x43) (or (not (= x98 x33)) x43)) (or x43 (not (= x17 x124)))) (or x43 (not (= x133 x136)))) (or x43 (not x112))) (and (and (and (and (and (and (or x143 (not (= x19 x16))) (or x143 (not (= x131 x98)))) (or x143 (not x89))) (or (not (= x9 x136)) x143)) (or x143 (not (= x96 x4)))) (and (and (or (not (= x44 x96)) x105) (and (and (or (not (= x41 x124)) x105) (and (or (not x127) x105) (or (not (= x46 x19)) x105))) (or x105 (not (= x10 x136))))) (and (or x47 (not (= x111 x96))) (and (or x47 (not (= x136 x36))) (and (or x47 (not (= x65 x124))) (and (or (not x37) x47) (or (not (= x135 x98)) x47))))))) (and (or (not (= x96 x2)) x55) (and (and (and (or (not (= x132 x98)) x55) (or (not (= x19 x130)) x55)) (or x55 (not (= x97 x124)))) (or x55 (not x141)))))))))
(assert (and (not (= x136 x96)) (and (and (not (= x136 x124)) (and (not (= x98 x96)) (and (and (not (= x124 x98)) (and (not (= x96 x19)) (and (not (= x136 x19)) (and (not (= x124 x19)) (not (= x19 x98)))))) (not (= x136 x98))))) (not (= x96 x124)))))
(assert (let ((x89 (x146 x124 x98)) (x55 (x146 x136 x124)) (x65 (x146 x98 x124)) (x132 (x146 x136 x98)) (x141 (x146 x136 x96)) (x127 (x146 x19 x96)) (x131 (x146 x98 x96)) (x130 (x146 x124 x124)) (x118 (x146 x96 x19)) (x143 (x146 x124 x19)) (x135 (x146 x19 x136)) (x36 (x146 x124 x136)) (x97 (x146 x136 x136)) (x111 (x146 x96 x98)) (x9 (x146 x136 x19)) (x4 (x146 x96 x136)) (x10 (x146 x124 x96)) (x37 (x146 x19 x19)) (x105 (x146 x98 x19)) (x41 (x146 x98 x136)) (x44 (x146 x96 x124)) (x46 (x146 x19 x124)) (x16 (x146 x98 x98)) (x47 (x146 x19 x98)) (x2 (x146 x96 x96))) (and (and (and (and (and (and (and (and (or (or (or (= x37 x124) (or (= x37 x98) (= x37 x19))) (= x136 x37)) (= x37 x96)) (or (= x47 x96) (or (= x136 x47) (or (= x47 x124) (or (= x47 x19) (= x98 x47)))))) (or (or (or (= x46 x124) (or (= x46 x98) (= x19 x46))) (= x136 x46)) (= x96 x46))) (or (or (or (= x124 x135) (or (= x135 x19) (= x135 x98))) (= x135 x136)) (= x135 x96))) (or (= x127 x96) (or (or (= x124 x127) (or (= x98 x127) (= x19 x127))) (= x127 x136)))) (and (or (= x131 x96) (or (= x136 x131) (or (or (= x131 x98) (= x131 x19)) (= x124 x131)))) (and (and (or (or (= x136 x65) (or (= x124 x65) (or (= x65 x98) (= x19 x65)))) (= x96 x65)) (and (or (= x96 x16) (or (= x136 x16) (or (= x124 x16) (or (= x16 x19) (= x16 x98))))) (or (= x105 x96) (or (= x105 x136) (or (= x105 x124) (or (= x105 x19) (= x98 x105))))))) (or (or (= x136 x41) (or (= x124 x41) (or (= x98 x41) (= x19 x41)))) (= x41 x96))))) (and (or (or (or (= x124 x10) (or (= x19 x10) (= x10 x98))) (= x10 x136)) (= x96 x10)) (and (or (= x36 x96) (or (= x136 x36) (or (= x36 x124) (or (= x98 x36) (= x19 x36))))) (and (or (or (= x136 x130) (or (or (= x130 x98) (= x19 x130)) (= x130 x124))) (= x130 x96)) (and (or (or (or (or (= x89 x98) (= x89 x19)) (= x124 x89)) (= x89 x136)) (= x96 x89)) (or (= x96 x143) (or (or (= x143 x124) (or (= x98 x143) (= x143 x19))) (= x136 x143)))))))) (and (and (and (and (or (or (= x136 x132) (or (= x124 x132) (or (= x132 x19) (= x98 x132)))) (= x132 x96)) (or (or (= x136 x9) (or (= x9 x124) (or (= x9 x19) (= x9 x98)))) (= x96 x9))) (or (= x55 x96) (or (= x55 x136) (or (or (= x55 x98) (= x19 x55)) (= x124 x55))))) (or (= x97 x96) (or (or (or (= x97 x98) (= x97 x19)) (= x124 x97)) (= x97 x136)))) (or (= x141 x96) (or (or (= x124 x141) (or (= x141 x19) (= x98 x141))) (= x136 x141))))) (and (and (and (or (or (or (= x124 x44) (or (= x98 x44) (= x19 x44))) (= x136 x44)) (= x96 x44)) (and (or (or (= x136 x118) (or (= x118 x124) (or (= x118 x19) (= x118 x98)))) (= x96 x118)) (or (or (= x136 x111) (or (or (= x111 x19) (= x98 x111)) (= x124 x111))) (= x96 x111)))) (or (= x4 x96) (or (= x136 x4) (or (= x4 x124) (or (= x98 x4) (= x19 x4)))))) (or (= x2 x96) (or (or (or (= x98 x2) (= x2 x19)) (= x2 x124)) (= x136 x2)))))))
(assert (or (or (or (and (not (= x124 (x146 x96 (x146 x124 x96)))) (and (and (not (= x124 (x146 x124 (x146 x124 x124)))) (and (not (= x124 (x146 x19 (x146 x124 x19)))) (not (= x124 (x146 x98 (x146 x124 x98)))))) (not (= (x146 x136 (x146 x124 x136)) x124)))) (or (and (and (not (= x19 (x146 x136 (x146 x19 x136)))) (and (not (= x19 (x146 x124 (x146 x19 x124)))) (and (not (= x19 (x146 x98 (x146 x19 x98)))) (not (= x19 (x146 x19 (x146 x19 x19))))))) (not (= (x146 x96 (x146 x19 x96)) x19))) (and (not (= (x146 x96 (x146 x98 x96)) x98)) (and (not (= x98 (x146 x136 (x146 x98 x136)))) (and (not (= (x146 x124 (x146 x98 x124)) x98)) (and (not (= x98 (x146 x19 (x146 x98 x19)))) (not (= (x146 x98 (x146 x98 x98)) x98)))))))) (and (not (= (x146 x96 (x146 x136 x96)) x136)) (and (and (not (= x136 (x146 x124 (x146 x136 x124)))) (and (not (= x136 (x146 x98 (x146 x136 x98)))) (not (= x136 (x146 x19 (x146 x136 x19)))))) (not (= x136 (x146 x136 (x146 x136 x136))))))) (and (and (not (= (x146 x136 (x146 x96 x136)) x96)) (and (not (= (x146 x124 (x146 x96 x124)) x96)) (and (not (= x96 (x146 x98 (x146 x96 x98)))) (not (= x96 (x146 x19 (x146 x96 x19))))))) (not (= x96 (x146 x96 (x146 x96 x96)))))))
(assert (let ((x65 (x146 x19 x124)) (x50 (x146 x136 x96)) (x2 (x146 x98 x124)) (x14 (x146 x136 x98)) (x122 (x146 x96 x124)) (x121 (x146 x136 x124)) (x38 (x146 x124 x96)) (x118 (x146 x98 x19)) (x44 (x146 x98 x98)) (x5 (x146 x124 x136)) (x43 (x146 x98 x136)) (x68 (x146 x136 x19)) (x147 (x146 x124 x124)) (x58 (x146 x96 x96)) (x41 (x146 x19 x136)) (x120 (x146 x96 x19)) (x31 (x146 x124 x19)) (x134 (x146 x96 x136)) (x16 (x146 x19 x98)) (x101 (x146 x124 x98)) (x131 (x146 x19 x96)) (x42 (x146 x96 x98)) (x78 (x146 x136 x136)) (x133 (x146 x98 x96)) (x105 (x146 x19 x19))) (let ((x86 (= x134 x96)) (x67 (= x44 x96)) (x89 (= x19 x118)) (x116 (= x136 x147)) (x154 (= x124 x134)) (x49 (= x96 x31)) (x155 (= x121 x96)) (x11 (= x16 x96)) (x39 (= x122 x136)) (x115 (= x42 x96)) (x106 (= x14 x98)) (x102 (= x98 x121)) (x119 (= x101 x124)) (x7 (= x136 x41)) (x112 (= x98 x133)) (x143 (= x98 x105)) (x82 (= x124 x118)) (x149 (= x147 x19)) (x59 (= x133 x96)) (x29 (= x68 x136)) (x26 (= x136 x120)) (x36 (= x44 x19)) (x79 (= x147 x124)) (x129 (= x19 x14)) (x54 (= x43 x124)) (x132 (= x98 x41)) (x152 (= x136 x31)) (x27 (= x50 x98)) (x1 (= x124 x133)) (x24 (= x147 x98)) (x113 (= x131 x124)) (x142 (= x120 x19)) (x75 (= x16 x124)) (x85 (= x124 x42)) (x111 (= x98 x118)) (x145 (= x96 x131)) (x140 (= x5 x98)) (x127 (= x131 x19)) (x37 (= x105 x19)) (x153 (= x136 x65)) (x15 (= x101 x96)) (x159 (= x98 x122)) (x91 (= x68 x19)) (x22 (= x134 x19)) (x40 (= x124 x50)) (x28 (= x14 x96)) (x3 (= x96 x58)) (x114 (= x96 x2)) (x12 (= x78 x19)) (x103 (= x98 x68)) (x30 (= x120 x98)) (x77 (= x124 x38)) (x95 (= x121 x19)) (x84 (= x124 x65)) (x97 (= x131 x98)) (x130 (= x98 x16)) (x80 (= x124 x121)) (x157 (= x124 x5)) (x100 (= x16 x136)) (x73 (= x96 x105)) (x48 (= x124 x14)) (x34 (= x50 x19)) (x8 (= x50 x96)) (x148 (= x121 x136)) (x53 (= x38 x98)) (x45 (= x44 x136)) (x83 (= x96 x5)) (x139 (= x58 x19)) (x110 (= x2 x124)) (x150 (= x19 x42)) (x87 (= x136 x38)) (x70 (= x136 x50)) (x17 (= x98 x43)) (x107 (= x101 x19)) (x4 (= x98 x44)) (x57 (= x98 x58)) (x32 (= x43 x96)) (x55 (= x43 x19)) (x64 (= x122 x124)) (x135 (= x41 x19)) (x141 (= x133 x19)) (x151 (= x136 x105)) (x158 (= x41 x96)) (x10 (= x98 x65)) (x109 (= x78 x98)) (x72 (= x134 x98)) (x137 (= x118 x96)) (x33 (= x2 x98)) (x63 (= x78 x124)) (x13 (= x96 x78)) (x92 (= x44 x124)) (x88 (= x31 x98)) (x128 (= x118 x136)) (x99 (= x58 x124)) (x20 (= x42 x136)) (x46 (= x19 x65)) (x125 (= x31 x19)) (x21 (= x124 x68)) (x25 (= x120 x96)) (x35 (= x96 x68)) (x60 (= x124 x120)) (x123 (= x5 x136)) (x66 (= x14 x136)) (x6 (= x2 x136)) (x51 (= x124 x31)) (x74 (= x122 x19)) (x18 (= x124 x105)) (x71 (= x133 x136)) (x47 (= x19 x16)) (x52 (= x136 x134)) (x69 (= x136 x43)) (x90 (= x96 x122)) (x61 (= x78 x136)) (x62 (= x96 x38)) (x104 (= x41 x124)) (x76 (= x136 x131)) (x144 (= x101 x136)) (x117 (= x96 x65)) (x9 (= x19 x2)) (x94 (= x19 x5)) (x93 (= x19 x38)) (x138 (= x98 x101)) (x56 (= x96 x147)) (x156 (= x98 x42)) (x108 (= x58 x136))) (and (and (and (or (or (or (or (or (and (not x49) x60) (and (not x15) x85)) (and (not x56) x64)) (and (not x83) x154)) (and (not x62) x99)) (or (or (or (and x63 (not x123)) (or (and x80 (not x116)) (or (and (not x144) x48) (and (not x152) x21)))) (and (not x87) x40)) (or (or (or (or (and (not x94) x104) (or (and x84 (not x149)) (or (and x75 (not x107)) (and (not x125) x18)))) (and x113 (not x93))) (or (and x1 (not x53)) (or (and (not x140) x54) (or (and (not x24) x110) (or (and x82 (not x88)) (and (not x138) x92)))))) (or (or (and x157 (not x157)) (or (or (and x119 (not x119)) (and (not x51) x51)) (and x79 (not x79)))) (and x77 (not x77)))))) (and (or (or (or (or (and (not x69) x109) (or (and x102 (not x6)) (or (and (not x45) x106) (and x103 (not x128))))) (and (not x71) x27)) (or (or (or (or (and (not x55) x132) (or (and x10 (not x9)) (or (and (not x36) x130) (and x143 (not x89))))) (and (not x141) x97)) (or (and (not x112) x112) (or (and (not x17) x17) (or (or (and (not x111) x111) (and x4 (not x4))) (and x33 (not x33)))))) (or (and (not x1) x53) (or (and x140 (not x54)) (or (or (and (not x92) x138) (and x88 (not x82))) (and (not x110) x24)))))) (or (or (or (and x159 (not x114)) (or (and x30 (not x137)) (and x156 (not x67)))) (and (not x32) x72)) (and (not x59) x57))) (or (or (or (or (and (not x117) x74) (or (and (not x73) x142) (and (not x11) x150))) (and x22 (not x158))) (and x139 (not x145))) (or (or (or (or (and (not x104) x94) (or (and x149 (not x84)) (or (and (not x18) x125) (and (not x75) x107)))) (and x93 (not x113))) (or (or (or (or (and x9 (not x10)) (or (and (not x130) x36) (and x89 (not x143)))) (and (not x132) x55)) (and x141 (not x97))) (or (or (and (not x135) x135) (or (or (and (not x37) x37) (and (not x47) x47)) (and (not x46) x46))) (and x127 (not x127))))) (or (or (or (or (and (not x151) x91) (and x129 (not x100))) (and x95 (not x153))) (and x12 (not x7))) (and x34 (not x76))))))) (or (or (and (not x8) x108) (or (or (or (and (not x35) x26) (and x20 (not x28))) (and x39 (not x155))) (and (not x13) x52))) (or (or (or (or (and x123 (not x63)) (or (and x116 (not x80)) (or (and x144 (not x48)) (and (not x21) x152)))) (and (not x40) x87)) (or (or (or (and (not x109) x69) (or (or (and (not x106) x45) (and (not x103) x128)) (and x6 (not x102)))) (and x71 (not x27))) (or (or (or (or (and x151 (not x91)) (and x100 (not x129))) (and (not x95) x153)) (and (not x12) x7)) (and x76 (not x34))))) (or (or (and (not x61) x61) (or (or (and (not x29) x29) (and (not x66) x66)) (and (not x148) x148))) (and x70 (not x70)))))) (or (or (or (or (and x62 (not x99)) (or (or (or (and x15 (not x85)) (and (not x60) x49)) (and (not x64) x56)) (and (not x154) x83))) (or (or (and (not x139) x145) (or (and x158 (not x22)) (or (and x117 (not x74)) (or (and (not x150) x11) (and x73 (not x142)))))) (or (or (and x32 (not x72)) (or (or (and (not x30) x137) (and x67 (not x156))) (and x114 (not x159)))) (and (not x57) x59)))) (or (or (or (and x155 (not x39)) (or (and (not x26) x35) (and x28 (not x20)))) (and (not x52) x13)) (and (not x108) x8))) (or (and x3 (not x3)) (or (or (and x90 (not x90)) (or (and x25 (not x25)) (and x115 (not x115)))) (and x86 (not x86)))))))))
(assert (and (and (or (= (x146 x96 x136) x96) (or (= (x146 x136 x136) x136) (or (or (= x19 (x146 x19 x136)) (= (x146 x98 x136) x98)) (= (x146 x124 x136) x124)))) (and (or (or (or (or (= (x146 x19 x124) x19) (= (x146 x98 x124) x98)) (= x124 (x146 x124 x124))) (= x136 (x146 x136 x124))) (= x96 (x146 x96 x124))) (and (or (or (or (or (= (x146 x98 x19) x98) (= x19 (x146 x19 x19))) (= x124 (x146 x124 x19))) (= (x146 x136 x19) x136)) (= (x146 x96 x19) x96)) (or (= (x146 x96 x98) x96) (or (= x136 (x146 x136 x98)) (or (= (x146 x124 x98) x124) (or (= (x146 x19 x98) x19) (= (x146 x98 x98) x98)))))))) (or (or (or (or (= x19 (x146 x19 x96)) (= x98 (x146 x98 x96))) (= x124 (x146 x124 x96))) (= x136 (x146 x136 x96))) (= (x146 x96 x96) x96))))
(assert (not (and (= (x146 x96 x96) x19) (and (= (x146 x96 x136) x98) (and (and (and (= x136 (x146 x96 x19)) (and (and (= x96 (x146 x136 x136)) (and (= x136 (x146 x136 x124)) (and (= x19 (x146 x136 x98)) (and (= (x146 x136 x19) x98) (and (= (x146 x124 x96) x136) (and (= (x146 x124 x136) x124) (and (= x19 (x146 x124 x124)) (and (= (x146 x124 x98) x98) (and (= x96 (x146 x124 x19)) (and (and (= (x146 x98 x136) x19) (and (= (x146 x98 x124) x96) (and (and (= x124 (x146 x98 x19)) (and (= (x146 x19 x96) x96) (and (and (and (= (x146 x19 x19) x19) (= (x146 x19 x98) x124)) (= (x146 x19 x124) x98)) (= x136 (x146 x19 x136))))) (= x136 (x146 x98 x98))))) (= (x146 x98 x96) x98))))))))))) (= x124 (x146 x136 x96)))) (= (x146 x96 x98) x96)) (= x124 (x146 x96 x124)))))))
(assert (or (and (not (= x96 (x146 x96 (x146 x96 x96)))) (and (not (= (x146 x96 (x146 x96 x136)) x136)) (and (and (not (= (x146 x96 (x146 x96 x98)) x98)) (not (= (x146 x96 (x146 x96 x19)) x19))) (not (= x124 (x146 x96 (x146 x96 x124))))))) (or (and (and (and (and (not (= x98 (x146 x136 (x146 x136 x98)))) (not (= x19 (x146 x136 (x146 x136 x19))))) (not (= (x146 x136 (x146 x136 x124)) x124))) (not (= (x146 x136 (x146 x136 x136)) x136))) (not (= x96 (x146 x136 (x146 x136 x96))))) (or (and (not (= (x146 x124 (x146 x124 x96)) x96)) (and (and (not (= x124 (x146 x124 (x146 x124 x124)))) (and (not (= (x146 x124 (x146 x124 x19)) x19)) (not (= (x146 x124 (x146 x124 x98)) x98)))) (not (= (x146 x124 (x146 x124 x136)) x136)))) (or (and (and (and (and (not (= x98 (x146 x98 (x146 x98 x98)))) (not (= (x146 x98 (x146 x98 x19)) x19))) (not (= x124 (x146 x98 (x146 x98 x124))))) (not (= (x146 x98 (x146 x98 x136)) x136))) (not (= x96 (x146 x98 (x146 x98 x96))))) (and (not (= x96 (x146 x19 (x146 x19 x96)))) (and (and (and (not (= (x146 x19 (x146 x19 x19)) x19)) (not (= x98 (x146 x19 (x146 x19 x98))))) (not (= x124 (x146 x19 (x146 x19 x124))))) (not (= x136 (x146 x19 (x146 x19 x136)))))))))))
(assert (or (and (and (not (= (x146 (x146 x136 x96) x136) x96)) (and (and (not (= (x146 (x146 x19 x96) x19) x96)) (not (= x96 (x146 (x146 x98 x96) x98)))) (not (= x96 (x146 (x146 x124 x96) x124))))) (not (= (x146 (x146 x96 x96) x96) x96))) (or (or (and (and (not (= x124 (x146 (x146 x136 x124) x136))) (and (not (= (x146 (x146 x124 x124) x124) x124)) (and (not (= x124 (x146 (x146 x98 x124) x98))) (not (= (x146 (x146 x19 x124) x19) x124))))) (not (= x124 (x146 (x146 x96 x124) x96)))) (or (and (and (and (and (not (= x98 (x146 (x146 x19 x98) x19))) (not (= x98 (x146 (x146 x98 x98) x98)))) (not (= x98 (x146 (x146 x124 x98) x124)))) (not (= (x146 (x146 x136 x98) x136) x98))) (not (= (x146 (x146 x96 x98) x96) x98))) (and (and (and (not (= (x146 (x146 x124 x19) x124) x19)) (and (not (= x19 (x146 (x146 x19 x19) x19))) (not (= x19 (x146 (x146 x98 x19) x98))))) (not (= (x146 (x146 x136 x19) x136) x19))) (not (= (x146 (x146 x96 x19) x96) x19))))) (and (not (= x136 (x146 (x146 x96 x136) x96))) (and (not (= x136 (x146 (x146 x136 x136) x136))) (and (not (= (x146 (x146 x124 x136) x124) x136)) (and (not (= (x146 (x146 x19 x136) x19) x136)) (not (= x136 (x146 (x146 x98 x136) x98))))))))))
(assert (let ((x37 (x146 x19 x19)) (x47 (x146 x98 x98)) (x135 (x146 x136 x136)) (x46 (x146 x124 x124)) (x127 (x146 x96 x96))) (or (not (= (x146 x127 x127) x127)) (or (or (not (= (x146 x46 x46) x46)) (or (not (= x37 (x146 x37 x37))) (not (= (x146 x47 x47) x47)))) (not (= x135 (x146 x135 x135)))))))
(assert (let ((x127 (x146 x96 x96)) (x47 (x146 x98 x98)) (x37 (x146 x19 x19)) (x135 (x146 x136 x136)) (x46 (x146 x124 x124))) (let ((x131 (not (= (x146 x124 x46) x124))) (x16 (= x37 x19)) (x143 (= x124 x46)) (x65 (not (= (x146 x98 x47) x98))) (x130 (= x136 x135)) (x105 (not (= (x146 x19 x37) x19))) (x36 (not (= (x146 x96 x127) x96))) (x41 (= x47 x98)) (x10 (= x96 x127)) (x89 (not (= x136 (x146 x136 x135))))) (and (and (and (and (and (or x105 (or (or (or (or x16 (= (x146 x98 x19) x98)) (= (x146 x124 x19) x124)) (= x136 (x146 x136 x19))) (= x96 (x146 x96 x19)))) (or (or (= x96 (x146 x96 x98)) (or (or (= (x146 x124 x98) x124) (or x41 (= (x146 x19 x98) x19))) (= (x146 x136 x98) x136))) x65)) (or x131 (or (= x96 (x146 x96 x124)) (or (= (x146 x136 x124) x136) (or x143 (or (= x19 (x146 x19 x124)) (= (x146 x98 x124) x98))))))) (or (or (or (or (= (x146 x124 x136) x124) (or (= x98 (x146 x98 x136)) (= (x146 x19 x136) x19))) x130) (= x96 (x146 x96 x136))) x89)) (or (or x10 (or (= x136 (x146 x136 x96)) (or (or (= x19 (x146 x19 x96)) (= x98 (x146 x98 x96))) (= (x146 x124 x96) x124)))) x36)) (and (or x36 (or x10 (or (= x135 x96) (or (= x46 x96) (or (= x96 x47) (= x96 x37)))))) (and (and (or (or (= x124 x127) (or (= x135 x124) (or x143 (or (= x47 x124) (= x124 x37))))) x131) (and (or (or (= x19 x127) (or (or (or (= x47 x19) x16) (= x46 x19)) (= x19 x135))) x105) (or (or (= x98 x127) (or (or (or (= x37 x98) x41) (= x98 x46)) (= x135 x98))) x65))) (or x89 (or (or x130 (or (= x46 x136) (or (= x136 x37) (= x47 x136)))) (= x127 x136)))))))))
(assert (let ((x135 (x146 x136 x136)) (x127 (x146 x96 x96)) (x46 (x146 x124 x124)) (x47 (x146 x98 x98)) (x37 (x146 x19 x19))) (or (and (not (= x96 x127)) (and (not (= x135 x96)) (and (and (not (= x37 x96)) (not (= x96 x47))) (not (= x96 x46))))) (or (or (and (not (= x124 x127)) (and (and (and (not (= x124 x37)) (not (= x47 x124))) (not (= x124 x46))) (not (= x124 x135)))) (or (and (not (= x127 x98)) (and (and (not (= x46 x98)) (and (not (= x47 x98)) (not (= x98 x37)))) (not (= x135 x98)))) (and (and (and (not (= x19 x46)) (and (not (= x19 x37)) (not (= x47 x19)))) (not (= x135 x19))) (not (= x19 x127))))) (and (not (= x136 x127)) (and (not (= x135 x136)) (and (not (= x136 x46)) (and (not (= x37 x136)) (not (= x136 x47))))))))))
(assert (let ((x37 (x146 x19 x19)) (x9 (x146 x19 x136)) (x132 (x146 x98 x136)) (x4 (x146 x136 x96)) (x10 (x146 x96 x124)) (x47 (x146 x98 x19)) (x111 (x146 x98 x96)) (x143 (x146 x19 x124)) (x44 (x146 x124 x96)) (x135 (x146 x136 x19)) (x141 (x146 x96 x136)) (x131 (x146 x96 x98)) (x118 (x146 x19 x96)) (x97 (x146 x136 x136)) (x2 (x146 x96 x96)) (x36 (x146 x136 x124)) (x89 (x146 x98 x124)) (x41 (x146 x136 x98)) (x55 (x146 x124 x136)) (x127 (x146 x96 x19)) (x130 (x146 x124 x124)) (x46 (x146 x124 x19)) (x65 (x146 x124 x98)) (x105 (x146 x19 x98)) (x16 (x146 x98 x98))) (and (and (and (and (not (= x141 x97)) (and (and (not (= x97 x55)) (and (and (and (not (= x132 x55)) (and (and (not (= x97 x9)) (and (not (= x55 x9)) (not (= x9 x132)))) (not (= x141 x9)))) (not (= x97 x132))) (not (= x132 x141)))) (not (= x55 x141)))) (and (and (and (and (and (and (and (and (and (not (= x37 x127)) (and (not (= x37 x135)) (and (not (= x46 x37)) (not (= x37 x47))))) (not (= x47 x46))) (not (= x47 x135))) (not (= x127 x47))) (not (= x135 x46))) (not (= x127 x46))) (not (= x135 x127))) (and (and (and (not (= x65 x41)) (and (and (not (= x41 x16)) (and (not (= x65 x16)) (and (and (and (not (= x16 x105)) (not (= x105 x65))) (not (= x105 x41))) (not (= x131 x105))))) (not (= x131 x16)))) (not (= x131 x65))) (not (= x41 x131)))) (and (not (= x10 x36)) (and (not (= x10 x130)) (and (not (= x130 x36)) (and (not (= x89 x10)) (and (and (and (not (= x10 x143)) (and (not (= x143 x36)) (and (not (= x130 x143)) (not (= x89 x143))))) (not (= x89 x130))) (not (= x89 x36))))))))) (and (and (and (and (not (= x111 x2)) (and (and (not (= x111 x44)) (and (not (= x118 x2)) (and (not (= x118 x4)) (and (not (= x118 x44)) (not (= x111 x118)))))) (not (= x111 x4)))) (not (= x4 x44))) (not (= x44 x2))) (not (= x4 x2)))) (and (and (not (= x141 x2)) (and (and (not (= x10 x141)) (and (not (= x131 x2)) (and (not (= x141 x131)) (and (not (= x131 x10)) (and (not (= x2 x127)) (and (not (= x127 x141)) (and (not (= x131 x127)) (not (= x10 x127))))))))) (not (= x10 x2)))) (and (and (and (and (and (and (and (not (= x16 x111)) (and (not (= x132 x16)) (and (and (and (not (= x47 x132)) (and (not (= x47 x16)) (not (= x89 x47)))) (not (= x111 x47))) (not (= x89 x16))))) (not (= x132 x89))) (not (= x89 x111))) (not (= x132 x111))) (and (not (= x118 x9)) (and (and (and (and (not (= x9 x105)) (and (and (and (and (not (= x37 x105)) (not (= x143 x37))) (not (= x37 x9))) (not (= x37 x118))) (not (= x143 x105)))) (not (= x105 x118))) (not (= x143 x9))) (not (= x118 x143))))) (and (not (= x55 x44)) (and (not (= x44 x130)) (and (not (= x55 x130)) (and (and (not (= x65 x55)) (and (and (and (not (= x55 x46)) (and (not (= x130 x46)) (not (= x46 x65)))) (not (= x44 x46))) (not (= x65 x130)))) (not (= x65 x44))))))) (and (and (and (not (= x97 x36)) (and (and (and (not (= x41 x36)) (and (not (= x4 x135)) (and (and (not (= x41 x135)) (not (= x135 x36))) (not (= x97 x135))))) (not (= x97 x41))) (not (= x41 x4)))) (not (= x36 x4))) (not (= x97 x4))))))))
(assert (let ((x111 (x146 x98 x96)) (x43 (x146 x96 x98)) (x45 (x146 x96 x136)) (x67 (x146 x96 x96)) (x127 (x146 x19 x136)) (x105 (x146 x19 x96)) (x134 (x146 x124 x124)) (x41 (x146 x124 x19)) (x46 (x146 x19 x98)) (x141 (x146 x98 x124)) (x47 (x146 x19 x19)) (x118 (x146 x98 x136)) (x135 (x146 x19 x124)) (x131 (x146 x136 x19)) (x7 (x146 x136 x136)) (x12 (x146 x136 x96)) (x84 (x146 x136 x124)) (x149 (x146 x96 x124)) (x18 (x146 x124 x96)) (x65 (x146 x98 x19)) (x143 (x146 x96 x19)) (x33 (x146 x136 x98)) (x97 (x146 x98 x98)) (x58 (x146 x124 x136)) (x2 (x146 x124 x98))) (let ((x147 (= x136 x97)) (x148 (= x96 x58)) (x24 (= x136 x134)) (x38 (= x96 x46)) (x9 (= x46 x19)) (x13 (= x143 x96)) (x85 (= x111 x124)) (x50 (= x19 x141)) (x104 (= x41 x124)) (x79 (= x33 x19)) (x28 (= x111 x136)) (x72 (= x98 x67)) (x158 (= x19 x12)) (x56 (= x18 x124)) (x129 (= x131 x98)) (x110 (= x136 x141)) (x80 (= x136 x58)) (x99 (= x136 x149)) (x61 (= x96 x7)) (x64 (= x124 x12)) (x103 (= x98 x7)) (x107 (= x98 x134)) (x66 (= x96 x118)) (x20 (= x136 x18)) (x75 (= x141 x98)) (x128 (= x58 x98)) (x30 (= x98 x45)) (x114 (= x98 x111)) (x109 (= x118 x124)) (x4 (= x97 x98)) (x77 (= x127 x19)) (x74 (= x18 x19)) (x112 (= x124 x97)) (x116 (= x118 x136)) (x21 (= x33 x136)) (x26 (= x105 x136)) (x140 (= x2 x96)) (x157 (= x19 x84)) (x78 (= x135 x19)) (x137 (= x98 x149)) (x91 (= x58 x19)) (x32 (= x12 x98)) (x37 (= x19 x47)) (x139 (= x43 x98)) (x86 (= x12 x96)) (x156 (= x105 x98)) (x22 (= x19 x67)) (x14 (= x19 x41)) (x92 (= x136 x2)) (x52 (= x43 x96)) (x53 (= x141 x96)) (x159 (= x98 x18)) (x113 (= x124 x135)) (x51 (= x134 x96)) (x102 (= x124 x84)) (x27 (= x7 x124)) (x123 (= x136 x7)) (x10 (= x65 x19)) (x48 (= x136 x127)) (x71 (= x58 x124)) (x132 (= x97 x19)) (x142 (= x149 x19)) (x93 (= x141 x124)) (x145 (= x143 x98)) (x121 (= x2 x19)) (x133 (= x46 x124)) (x100 (= x19 x7)) (x6 (= x33 x124)) (x89 (= x47 x124)) (x115 (= x111 x96)) (x1 (= x135 x96)) (x39 (= x136 x67)) (x130 (= x136 x47)) (x69 (= x127 x124)) (x70 (= x19 x143)) (x152 (= x131 x136)) (x57 (= x124 x43)) (x11 (= x45 x19)) (x44 (= x98 x46)) (x151 (= x19 x118)) (x153 (= x33 x98)) (x144 (= x136 x84)) (x17 (= x124 x65)) (x106 (= x124 x131)) (x62 (= x43 x136)) (x40 (= x84 x96)) (x36 (= x96 x47)) (x73 (= x19 x43)) (x63 (= x96 x131)) (x60 (= x45 x124)) (x90 (= x96 x18)) (x154 (= x136 x143)) (x122 (= x98 x2)) (x15 (= x124 x105)) (x42 (= x41 x98)) (x120 (= x134 x19)) (x25 (= x105 x96)) (x125 (= x135 x98)) (x88 (= x41 x136)) (x16 (= x98 x47)) (x117 (= x111 x19)) (x138 (= x135 x136)) (x5 (= x96 x65)) (x150 (= x19 x105)) (x82 (= x134 x124)) (x87 (= x96 x33)) (x95 (= x98 x84)) (x76 (= x127 x98)) (x35 (= x45 x136)) (x3 (= x96 x67)) (x108 (= x96 x45)) (x83 (= x67 x124)) (x31 (= x136 x65)) (x59 (= x124 x143)) (x49 (= x124 x149)) (x155 (= x136 x12)) (x55 (= x98 x65)) (x94 (= x2 x124)) (x68 (= x97 x96)) (x8 (= x96 x149)) (x54 (= x41 x96)) (x119 (= x19 x131)) (x29 (= x127 x96)) (x34 (= x118 x98)) (x101 (= x46 x136))) (and (and (and (and (and (and (and (or (or (or x88 (or x31 x130)) x152) x154) (or (or (or x138 (or x101 x130)) x48) x26)) (and (and (or (or x69 (or (or x133 x89) x113)) x15) (or (or x106 (or (or x89 x17) x104)) x59)) (and (and (or x156 (or x76 (or (or x16 x44) x125))) (or (or (or (or x16 x55) x42) x129) x145)) (and (or (or x119 (or x14 (or x10 x37))) x70) (or (or x77 (or (or x9 x37) x78)) x150))))) (and (or (or (or x1 (or x36 x38)) x29) x25) (or (or x63 (or (or x5 x36) x54)) x13))) (and (and (or (or x66 (or x53 (or x68 x5))) x115) (or (or (or (or x38 x68) x140) x87) x52)) (and (and (and (or (or x6 (or (or x112 x133) x94)) x57) (or (or (or (or x112 x17) x93) x109) x85)) (and (and (or (or (or x121 (or x9 x132)) x79) x73) (or (or (or x50 (or x10 x132)) x151) x117)) (and (or x114 (or x34 (or x75 (or x4 x55)))) (or x139 (or (or x122 (or x4 x44)) x153))))) (and (or x28 (or x116 (or (or x31 x147) x110))) (or x62 (or (or (or x147 x101) x92) x21)))))) (and (and (or (or (or x51 (or x53 x1)) x40) x8) (or (or x148 (or (or x140 x54) x51)) x90)) (and (and (and (and (or (or x95 (or (or x125 x75) x107)) x137) (or (or (or x107 (or x42 x122)) x128) x159)) (and (or x142 (or (or (or x78 x50) x120) x157)) (or (or (or (or x121 x14) x120) x91) x74))) (and (or x56 (or (or (or x94 x104) x82) x71)) (or (or x102 (or (or x113 x93) x82)) x49))) (and (or (or (or (or x138 x110) x24) x144) x99) (or (or (or x24 (or x88 x92)) x80) x20))))) (and (and (or (or (or x40 (or x87 x63)) x61) x86) (or x108 (or x61 (or (or x29 x66) x148)))) (and (and (and (or x64 (or x27 (or x102 (or x6 x106)))) (or (or (or x71 (or x69 x109)) x27) x60)) (and (and (or x32 (or x103 (or (or x129 x153) x95))) (or (or x103 (or x128 (or x34 x76))) x30)) (and (or x158 (or x100 (or x157 (or x119 x79)))) (or x11 (or (or x91 (or x77 x151)) x100))))) (and (or (or (or x144 (or x21 x152)) x123) x155) (or x35 (or x123 (or x80 (or x48 x116)))))))) (and (and (or x3 (or (or (or x115 x25) x90) x86)) (or x3 (or x108 (or (or x13 x52) x8)))) (and (and (or (or (or (or x154 x62) x99) x35) x39) (or x39 (or x155 (or (or x26 x28) x20)))) (and (and (or x83 (or (or (or x85 x15) x56) x64)) (or (or (or (or x57 x59) x49) x60) x83)) (and (and (or x22 (or (or (or x150 x117) x74) x158)) (or x22 (or (or x142 (or x73 x70)) x11))) (and (or (or (or (or x114 x156) x159) x32) x72) (or (or x30 (or x137 (or x145 x139))) x72))))))))))
(assert (and (and (and (= (x146 x136 x96) x124) (= (x146 x136 x98) x19)) (= x136 (x146 x98 x98))) (= (x146 x136 x136) x96)))
(assert (let ((x121 (x146 x98 x98)) (x122 (x146 x136 x98)) (x94 (x146 x136 x124)) (x17 (x146 x19 x98)) (x33 (x146 x19 x19)) (x53 (x146 x96 x136)) (x31 (x146 x124 x19)) (x42 (x146 x98 x136)) (x104 (x146 x124 x136)) (x38 (x146 x96 x19)) (x113 (x146 x124 x96)) (x134 (x146 x98 x96)) (x93 (x146 x96 x124)) (x84 (x146 x124 x124)) (x129 (x146 x96 x96)) (x1 (x146 x136 x96)) (x112 (x146 x19 x124)) (x50 (x146 x98 x124)) (x54 (x146 x136 x136)) (x120 (x146 x124 x98)) (x101 (x146 x19 x136)) (x133 (x146 x98 x19)) (x58 (x146 x96 x98)) (x5 (x146 x19 x96)) (x147 (x146 x136 x19))) (let ((x127 (not (= x19 x31))) (x130 (not (= x19 x42))) (x13 (not (= x38 x96))) (x107 (not (= x98 x50))) (x68 (not (= x133 x98))) (x80 (not (= x124 x93))) (x47 (not (= x133 x19))) (x44 (not (= x19 x53))) (x36 (not (= x94 x19))) (x74 (not (= x101 x136))) (x78 (not (= x121 x98))) (x40 (not (= x124 x129))) (x159 (not (= x93 x136))) (x119 (not (= x98 x5))) (x118 (not (= x93 x19))) (x24 (not (= x104 x98))) (x82 (not (= x98 x147))) (x111 (not (= x113 x19))) (x45 (not (= x50 x124))) (x43 (not (= x98 x33))) (x144 (not (= x124 x5))) (x71 (not (= x124 x94))) (x73 (not (= x112 x136))) (x61 (not (= x121 x136))) (x90 (not (= x53 x96))) (x89 (not (= x122 x19))) (x140 (not (= x98 x54))) (x34 (not (= x31 x124))) (x106 (not (= x84 x124))) (x145 (not (= x94 x136))) (x49 (not (= x33 x96))) (x65 (not (= x50 x19))) (x37 (not (= x33 x19))) (x132 (not (= x19 x38))) (x69 (not (= x122 x124))) (x116 (not (= x124 x134))) (x123 (not (= x124 x113))) (x110 (not (= x98 x94))) (x95 (not (= x33 x124))) (x85 (not (= x121 x96))) (x7 (not (= x133 x124))) (x29 (not (= x33 x136))) (x143 (not (= x19 x101))) (x102 (not (= x101 x124))) (x156 (not (= x136 x58))) (x99 (not (= x147 x96))) (x41 (not (= x84 x19))) (x114 (not (= x136 x134))) (x79 (not (= x58 x98))) (x153 (not (= x129 x98))) (x12 (not (= x124 x17))) (x59 (not (= x1 x136))) (x52 (not (= x5 x96))) (x11 (not (= x50 x136))) (x2 (not (= x19 x129))) (x87 (not (= x1 x124))) (x64 (not (= x112 x96))) (x152 (not (= x124 x54))) (x92 (not (= x122 x98))) (x103 (not (= x124 x120))) (x51 (not (= x98 x38))) (x138 (not (= x98 x42))) (x142 (not (= x136 x120))) (x60 (not (= x96 x133))) (x21 (not (= x124 x38))) (x75 (not (= x120 x98))) (x97 (not (= x19 x58))) (x35 (not (= x101 x96))) (x9 (not (= x19 x54))) (x76 (not (= x124 x121))) (x108 (not (= x96 x134))) (x150 (not (= x136 x84))) (x154 (not (= x96 x50))) (x83 (not (= x120 x96))) (x26 (not (= x122 x96))) (x3 (not (= x96 x129))) (x15 (not (= x96 x17))) (x57 (not (= x136 x129))) (x105 (not (= x112 x19))) (x72 (not (= x136 x53))) (x117 (not (= x147 x136))) (x139 (not (= x136 x104))) (x8 (not (= x58 x96))) (x63 (not (= x53 x124))) (x56 (not (= x96 x31))) (x30 (not (= x38 x136))) (x151 (not (= x98 x113))) (x22 (not (= x42 x136))) (x115 (not (= x113 x96))) (x149 (not (= x98 x84))) (x148 (not (= x136 x17))) (x157 (not (= x98 x134))) (x55 (not (= x19 x5))) (x128 (not (= x112 x124))) (x48 (not (= x124 x58))) (x125 (not (= x112 x98))) (x88 (not (= x101 x98))) (x137 (not (= x54 x136))) (x25 (not (= x96 x93))) (x10 (not (= x104 x19))) (x91 (not (= x53 x98))) (x27 (not (= x124 x104))) (x18 (not (= x31 x98))) (x6 (not (= x124 x147))) (x20 (not (= x94 x96))) (x67 (not (= x5 x136))) (x131 (not (= x19 x147))) (x4 (not (= x19 x1))) (x158 (not (= x136 x122))) (x62 (not (= x96 x84))) (x77 (not (= x98 x93))) (x28 (not (= x42 x96))) (x141 (not (= x19 x134))) (x14 (not (= x98 x17))) (x109 (not (= x42 x124))) (x46 (not (= x19 x17))) (x32 (not (= x113 x136))) (x100 (not (= x98 x1))) (x16 (not (= x19 x120))) (x135 (not (= x19 x121))) (x39 (not (= x96 x54))) (x86 (not (= x1 x96))) (x70 (not (= x136 x31))) (x155 (not (= x104 x96))) (x66 (not (= x136 x133)))) (or (and (and (and (or x90 x86) (and (or x25 x115) (and (or x13 x52) (or x108 x8)))) (or x3 x3)) (and (and (and (and (or x155 x20) (and (and (or x56 x64) (or x83 x154)) (or x62 x62))) (or x25 x115)) (and (and (or x13 x52) (and (and (and (or x49 x49) (or x15 x60)) (or x56 x64)) (or x99 x35))) (and (or x108 x8) (and (or x28 x26) (and (and (or x60 x15) (or x85 x85)) (or x154 x83)))))) (and (or x90 x86) (and (or x39 x39) (and (and (or x28 x26) (or x35 x99)) (or x20 x155)))))) (or (or (or (and (and (and (or x4 x44) (and (and (or x36 x10) (and (or x89 x130) (or x143 x131))) (or x9 x9))) (and (and (and (or x55 x132) (and (and (and (or x37 x37) (or x47 x46)) (or x127 x105)) (or x131 x143))) (and (and (and (or x16 x65) (and (or x135 x135) (or x46 x47))) (or x130 x89)) (or x97 x141))) (and (and (or x36 x10) (and (and (or x16 x65) (or x127 x105)) (or x41 x41))) (or x111 x118)))) (and (or x2 x2) (and (and (or x111 x118) (and (or x132 x55) (or x97 x141))) (or x4 x44)))) (and (and (and (and (and (and (or x82 x88) (and (and (or x43 x43) (or x68 x14)) (or x125 x18))) (or x119 x51)) (and (and (and (and (or x78 x78) (or x14 x68)) (or x75 x107)) (or x138 x92)) (or x79 x157))) (and (or x77 x151) (and (and (or x149 x149) (and (or x18 x125) (or x75 x107))) (or x110 x24)))) (and (or x100 x91) (and (and (or x110 x24) (and (or x138 x92) (or x82 x88))) (or x140 x140)))) (and (or x153 x153) (and (and (or x77 x151) (and (or x79 x157) (or x51 x119))) (or x100 x91))))) (and (and (and (or x63 x87) (and (or x123 x80) (and (or x144 x21) (or x48 x116)))) (or x40 x40)) (and (and (and (or x123 x80) (and (and (and (or x45 x103) (or x34 x128)) (or x106 x106)) (or x27 x71))) (and (and (or x21 x144) (and (and (or x128 x34) (and (or x7 x12) (or x95 x95))) (or x102 x6))) (and (or x116 x48) (and (or x109 x69) (and (and (or x76 x76) (or x7 x12)) (or x45 x103)))))) (and (or x63 x87) (and (and (and (or x102 x6) (or x109 x69)) (or x71 x27)) (or x152 x152)))))) (and (and (and (or x72 x59) (and (or x137 x137) (and (or x139 x145) (and (or x22 x158) (or x74 x117))))) (and (and (and (and (or x158 x22) (and (and (or x66 x148) (or x61 x61)) (or x11 x142))) (or x114 x156)) (and (and (or x117 x74) (and (and (or x148 x66) (or x29 x29)) (or x70 x73))) (or x30 x67))) (and (or x159 x32) (and (or x145 x139) (and (or x150 x150) (and (or x73 x70) (or x142 x11))))))) (and (and (and (or x32 x159) (and (or x114 x156) (or x67 x30))) (or x59 x72)) (or x57 x57))))))))
(assert (or (and (= x96 (x146 x96 (x146 x96 x96))) (and (= (x146 x96 (x146 x96 x136)) x136) (and (and (= (x146 x96 (x146 x96 x98)) x98) (= (x146 x96 (x146 x96 x19)) x19)) (= x124 (x146 x96 (x146 x96 x124)))))) (or (and (and (= (x146 x136 (x146 x136 x136)) x136) (and (= x124 (x146 x136 (x146 x136 x124))) (and (= x19 (x146 x136 (x146 x136 x19))) (= x98 (x146 x136 (x146 x136 x98)))))) (= (x146 x136 (x146 x136 x96)) x96)) (or (or (and (and (= x136 (x146 x19 (x146 x19 x136))) (and (= x124 (x146 x19 (x146 x19 x124))) (and (= (x146 x19 (x146 x19 x19)) x19) (= x98 (x146 x19 (x146 x19 x98)))))) (= x96 (x146 x19 (x146 x19 x96)))) (and (= (x146 x98 (x146 x98 x96)) x96) (and (= (x146 x98 (x146 x98 x136)) x136) (and (and (= (x146 x98 (x146 x98 x19)) x19) (= (x146 x98 (x146 x98 x98)) x98)) (= (x146 x98 (x146 x98 x124)) x124))))) (and (and (and (and (= x98 (x146 x124 (x146 x124 x98))) (= (x146 x124 (x146 x124 x19)) x19)) (= x124 (x146 x124 (x146 x124 x124)))) (= x136 (x146 x124 (x146 x124 x136)))) (= x96 (x146 x124 (x146 x124 x96))))))))
(check-sat)
(exit)
